
Gurobi 8.1.1 (win64, Python) logging started 10/06/19 13:07:00

Academic license - for non-commercial use only

Gurobi 8.1.1 (win64, Python) logging started 10/06/19 13:23:37

Academic license - for non-commercial use only

Gurobi 8.1.1 (win64, Python) logging started 10/06/19 13:32:18

Academic license - for non-commercial use only

Gurobi 8.1.1 (win64, Python) logging started 10/06/19 13:36:41

Academic license - for non-commercial use only

Gurobi 8.1.1 (win64, Python) logging started 10/06/19 13:38:15

Academic license - for non-commercial use only

Gurobi 8.1.1 (win64, Python) logging started 10/06/19 13:40:10

Academic license - for non-commercial use only

Gurobi 8.1.1 (win64, Python) logging started 10/06/19 13:45:11

Academic license - for non-commercial use only

Gurobi 8.1.1 (win64, Python) logging started 10/06/19 13:49:19

Academic license - for non-commercial use only

Gurobi 8.1.1 (win64, Python) logging started 10/06/19 13:51:30

Academic license - for non-commercial use only

Gurobi 8.1.1 (win64, Python) logging started 10/06/19 13:54:33

Academic license - for non-commercial use only

Gurobi 8.1.1 (win64, Python) logging started 10/06/19 13:55:35

Academic license - for non-commercial use only

Gurobi 8.1.1 (win64, Python) logging started 10/06/19 14:00:35

Academic license - for non-commercial use only

Gurobi 8.1.1 (win64, Python) logging started 10/06/19 14:09:13

Academic license - for non-commercial use only
